
Gurobi 11.0.3 (linux64) logging started Fri Mar  6 21:40:14 2026

Set parameter LogFile to value "binary/results/rice_2026-03-06_21-40-13/split_1/full_mip/LogFile/log_file_full_mip_0.txt"
Gurobi Optimizer version 11.0.3 build v11.0.3rc0 (linux64 - "CentOS Linux 7 (Core)")

CPU model: Intel(R) Xeon(R) Platinum 8260 CPU @ 2.40GHz, instruction set [SSE2|AVX|AVX2|AVX512]
Thread count: 96 physical cores, 192 logical processors, using up to 4 threads

Optimize a model with 5733 rows, 5731 columns and 57181 nonzeros
Model fingerprint: 0xfe03c1cf
Variable types: 17 continuous, 5714 integer (5714 binary)
Coefficient statistics:
  Matrix range     [6e-05, 1e+04]
  Objective range  [4e-04, 1e+04]
  Bounds range     [1e+00, 5e+02]
  RHS range        [1e+00, 1e+03]

User MIP start produced solution with objective -384799 (0.01s)
User MIP start produced solution with objective -384799 (0.01s)
Loaded user MIP start with objective -384799

Presolve removed 3 rows and 1 columns
Presolve time: 0.04s
Presolved: 5730 rows, 5730 columns, 54319 nonzeros
Variable types: 15 continuous, 5715 integer (5714 binary)
Found heuristic solution: objective -384799.1383

Root relaxation: objective 9.997838e-01, 1632 iterations, 0.22 seconds (0.45 work units)

    Nodes    |    Current Node    |     Objective Bounds      |     Work
 Expl Unexpl |  Obj  Depth IntInf | Incumbent    BestBd   Gap | It/Node Time

     0     0    0.99978    0  527 -384799.14    0.99978   100%     -    0s
H    0     0                    -376399.0847    0.99978   100%     -    0s
H    0     0                    -366799.0847    0.99978   100%     -    0s
H    0     0                    -81999.08855    0.99978   100%     -    0s
     0     0    0.99977    0  534 -81999.089    0.99977   100%     -    1s
H    0     0                    -72399.08855    0.99977   100%     -    1s
H    0     0                    -59199.08855    0.99977   100%     -    2s
     0     0    0.99969    0  536 -59199.089    0.99969   100%     -    2s
     0     0    0.99908    0  538 -59199.089    0.99908   100%     -    2s
H    0     0                    -49599.08855    0.99908   100%     -    2s
     0     0    0.99908    0  530 -49599.089    0.99908   100%     -    2s
     0     0    0.99903    0  577 -49599.089    0.99903   100%     -    3s
H    0     0                    -39999.08855    0.99903   100%     -    3s
H    0     0                    -32799.22016    0.99903   100%     -    3s
     0     0    0.99894    0  574 -32799.220    0.99894   100%     -    3s
     0     0    0.99858    0  572 -32799.220    0.99858   100%     -    3s
H    0     0                    -23199.22016    0.99858   100%     -    3s
     0     0    0.99855    0  572 -23199.220    0.99855   100%     -    4s
     0     0    0.99843    0  568 -23199.220    0.99843   100%     -    4s
H    0     0                       0.7875394    0.99843  26.8%     -    4s
H    0     0                       0.8053903    0.99843  24.0%     -    9s
H    0     0                       0.8071404    0.99843  23.7%     -    9s
H    0     2                       0.8235912    0.99843  21.2%     -   10s
     0     2    0.99843    0  568    0.82359    0.99843  21.2%     -   10s
H    1     4                       0.8323416    0.99843  20.0%   3.0   12s
    23    28    0.99717    5 1550    0.83234    0.99804  19.9%  1141   15s
H   27    32                       0.8379419    0.99804  19.1%  1254   16s

Cutting planes:
  Gomory: 10
  Cover: 1
  MIR: 45
  StrongCG: 7
  RLT: 24
  Relax-and-lift: 19

Explored 42 nodes (57285 simplex iterations) in 19.18 seconds (34.59 work units)
Thread count was 4 (of 192 available processors)

Solution count 10: 0.837942 0.832342 0.823591 ... -49599.1

Solve interrupted
Best objective 8.379418970949e-01, best bound 9.980419437912e-01, gap 19.1063%

User-callback calls 8994, time in user-callback 0.02 sec
